p cnf 40 112
a 24 2 0
e 1 3 4 5 6 7 8 9 10 11 12 13 14 15 16 17 18 19 20 21 22 23 25 26 27 28 29 30 31 32 33 34 35 36 37 38 39 40 0
3 -1 0
3 2 0
1 -2 -3 0
-3 4 -5 0
3 -4 -5 0
-3 -4 5 0
3 4 5 0
8 6 0
8 7 0
-6 -7 -8 0
-9 8 0
-9 1 0
-8 -1 9 0
10 -5 0
10 9 0
5 -9 -10 0
-12 -11 0
-12 6 0
11 -6 12 0
14 13 0
14 -1 0
-13 1 -14 0
-15 -1 0
-15 4 0
1 -4 15 0
16 14 0
16 15 0
-14 -15 -16 0
17 16 0
17 -11 0
-16 11 -17 0
-4 -17 -18 0
4 17 -18 0
-4 17 18 0
4 -17 18 0
-12 -18 -19 0
12 18 -19 0
-12 18 19 0
12 -18 19 0
10 19 -20 0
-10 -19 -20 0
10 -19 20 0
-10 19 20 0
21 -13 0
21 -1 0
13 1 -21 0
-21 22 -23 0
21 -22 -23 0
-21 -22 23 0
21 22 23 0
16 17 -24 0
-16 -17 -24 0
16 -17 24 0
-16 17 24 0
-9 -13 -25 0
9 13 -25 0
-9 13 25 0
9 -13 25 0
27 26 0
27 -11 0
-26 11 -27 0
27 -22 -28 0
-27 22 -28 0
27 22 28 0
-27 -22 28 0
29 -25 0
29 -28 0
25 28 -29 0
31 30 0
31 -13 0
-30 13 -31 0
32 14 0
32 -8 0
-14 8 -32 0
-33 -32 0
-33 -4 0
32 4 33 0
34 -31 0
34 -33 0
31 33 -34 0
-27 -4 -35 0
27 4 -35 0
-27 4 35 0
27 -4 35 0
-34 35 -36 0
34 -35 -36 0
-34 -35 36 0
34 35 36 0
-37 -29 0
-37 36 0
29 -36 37 0
24 37 -38 0
-24 -37 -38 0
24 -37 38 0
-24 37 38 0
39 -23 0
39 -38 0
23 38 -39 0
-40 20 0
-40 -39 0
-20 39 40 0
14 -35 -6 -23 0
-30 16 1 8 0
-9 -29 19 -31 -39 16 -28 -23 0
3 10 38 7 -18 5 0
-11 17 -4 26 12 22 -13 0
-27 8 0
-20 13 21 34 0
20 22 5 -35 -15 -19 -32 34 0
15 -23 -32 0
-23 34 31 22 0
40 0
